(set-info :source |printed by MathSAT|)
(declare-fun A_18 () Int)
(declare-fun .x.530 () Int)
(declare-fun B_18 () (Array Int Int))
(declare-fun .x.531 () (Array Int Int))
(declare-fun C_18 () (Array Int Int))
(declare-fun .x.532 () (Array Int Int))
(declare-fun D_18 () (Array Int (Array Int Int)))
(declare-fun .x.533 () (Array Int (Array Int Int)))
(declare-fun E_18 () (Array Int (Array Int Int)))
(declare-fun .x.534 () (Array Int (Array Int Int)))
(declare-fun F_18 () Int)
(declare-fun .x.535 () Int)
(declare-fun G_18 () Int)
(declare-fun .x.536 () Int)
(declare-fun H_18 () (Array Int Int))
(declare-fun .x.537 () (Array Int Int))
(declare-fun I_18 () (Array Int Int))
(declare-fun .x.538 () (Array Int Int))
(declare-fun J_18 () Int)
(declare-fun .x.539 () Int)
(declare-fun K_18 () Int)
(declare-fun .x.540 () Int)
(declare-fun L_18 () Int)
(declare-fun .x.541 () Int)
(declare-fun M_18 () Int)
(declare-fun .x.542 () Int)
(declare-fun N_18 () Int)
(declare-fun .x.543 () Int)
(declare-fun O_18 () Int)
(declare-fun .x.544 () Int)
(declare-fun P_18 () Int)
(declare-fun .x.545 () Int)
(declare-fun Q_18 () Int)
(declare-fun .x.546 () Int)
(declare-fun R_18 () Int)
(declare-fun .x.547 () Int)
(declare-fun S_18 () Int)
(declare-fun .x.548 () Int)
(declare-fun T_18 () Int)
(declare-fun .x.549 () Int)
(declare-fun U_18 () Int)
(declare-fun .x.550 () Int)
(declare-fun V_18 () Int)
(declare-fun .x.551 () Int)
(declare-fun W_18 () Int)
(declare-fun .x.552 () Int)
(declare-fun X_18 () Int)
(declare-fun .x.553 () Int)
(declare-fun Y_18 () Int)
(declare-fun .x.554 () Int)
(declare-fun Z_18 () Int)
(declare-fun .x.555 () Int)
(declare-fun A1_18 () Int)
(declare-fun .x.556 () Int)
(declare-fun B1_18 () Int)
(declare-fun .x.557 () Int)
(declare-fun C1_18 () Int)
(declare-fun .x.558 () Int)
(declare-fun E1_10 () Bool)
(declare-fun D1_18 () Bool)
(declare-fun .loc.5 () Bool)
(declare-fun .loc.9 () Bool)
(declare-fun .loc.6 () Bool)
(declare-fun .loc.10 () Bool)
(declare-fun .loc.7 () Bool)
(declare-fun .loc.11 () Bool)
(declare-fun .loc.8 () Bool)
(declare-fun .loc.12 () Bool)
(declare-fun E1_0 () (Array Int Int))
(define-fun .def_8 () Int (! A_18 :next |.x.530|))
(define-fun .def_10 () (Array Int Int) (! B_18 :next |.x.531|))
(define-fun .def_12 () (Array Int Int) (! C_18 :next |.x.532|))
(define-fun .def_14 () (Array Int (Array Int Int)) (! D_18 :next |.x.533|))
(define-fun .def_16 () (Array Int (Array Int Int)) (! E_18 :next |.x.534|))
(define-fun .def_18 () Int (! F_18 :next |.x.535|))
(define-fun .def_20 () Int (! G_18 :next |.x.536|))
(define-fun .def_22 () (Array Int Int) (! H_18 :next |.x.537|))
(define-fun .def_24 () (Array Int Int) (! I_18 :next |.x.538|))
(define-fun .def_26 () Int (! J_18 :next |.x.539|))
(define-fun .def_28 () Int (! K_18 :next |.x.540|))
(define-fun .def_30 () Int (! L_18 :next |.x.541|))
(define-fun .def_32 () Int (! M_18 :next |.x.542|))
(define-fun .def_34 () Int (! N_18 :next |.x.543|))
(define-fun .def_36 () Int (! O_18 :next |.x.544|))
(define-fun .def_38 () Int (! P_18 :next |.x.545|))
(define-fun .def_40 () Int (! Q_18 :next |.x.546|))
(define-fun .def_42 () Int (! R_18 :next |.x.547|))
(define-fun .def_44 () Int (! S_18 :next |.x.548|))
(define-fun .def_46 () Int (! T_18 :next |.x.549|))
(define-fun .def_48 () Int (! U_18 :next |.x.550|))
(define-fun .def_50 () Int (! V_18 :next |.x.551|))
(define-fun .def_52 () Int (! W_18 :next |.x.552|))
(define-fun .def_54 () Int (! X_18 :next |.x.553|))
(define-fun .def_56 () Int (! Y_18 :next |.x.554|))
(define-fun .def_58 () Int (! Z_18 :next |.x.555|))
(define-fun .def_60 () Int (! A1_18 :next |.x.556|))
(define-fun .def_62 () Int (! B1_18 :next |.x.557|))
(define-fun .def_64 () Int (! C1_18 :next |.x.558|))
(define-fun .def_66 () Bool (! E1_10 :next |D1_18|))
(define-fun .def_68 () Bool (! .loc.5 :next |.loc.9|))
(define-fun .def_70 () Bool (! .loc.6 :next |.loc.10|))
(define-fun .def_72 () Bool (! .loc.7 :next |.loc.11|))
(define-fun .def_74 () Bool (! .loc.8 :next |.loc.12|))
(define-fun .def_100 () (Array Int Int) (! E1_0 :next |.xtv.1|))
(define-fun .def_84 () Bool (not .def_70))
(define-fun .def_561 () Bool (and .def_68 .def_84))
(define-fun .def_86 () Bool (not .def_72))
(define-fun .def_562 () Bool (and .def_86 .def_561))
(define-fun .def_95 () Bool (not .def_74))
(define-fun .def_563 () Bool (and .def_95 .def_562))
(define-fun .def_555 () Bool (= .def_14 .def_16))
(define-fun .def_554 () Bool (not .def_66))
(define-fun .def_556 () Bool (and .def_554 .def_555))
(define-fun .def_553 () Bool (= .def_18 .def_20))
(define-fun .def_557 () Bool (and .def_553 .def_556))
(define-fun .def_552 () Bool (= .def_26 .def_28))
(define-fun .def_558 () Bool (and .def_552 .def_557))
(define-fun .def_551 () Bool (= .def_22 .def_24))
(define-fun .def_559 () Bool (and .def_551 .def_558))
(define-fun .def_550 () Bool (= .def_10 .def_12))
(define-fun .def_560 () Bool (and .def_550 .def_559))
(define-fun .def_564 () Bool (! (and .def_560 .def_563) :init true))
(define-fun .def_547 () Bool (= .def_28 .x.540))
(define-fun .def_545 () Bool (= .def_24 .x.538))
(define-fun .def_543 () Bool (= .def_20 .x.536))
(define-fun .def_541 () Bool (= .def_16 .x.534))
(define-fun .def_539 () Bool (= .def_8 .x.530))
(define-fun .def_538 () Bool (= .def_12 .x.532))
(define-fun .def_540 () Bool (and .def_538 .def_539))
(define-fun .def_542 () Bool (and .def_540 .def_541))
(define-fun .def_544 () Bool (and .def_542 .def_543))
(define-fun .def_546 () Bool (and .def_544 .def_545))
(define-fun .def_548 () Bool (and .def_546 .def_547))
(define-fun .def_150 () Bool (= .def_10 .x.531))
(define-fun .def_507 () Bool (and D1_18 .def_150))
(define-fun .def_149 () Bool (= .def_32 .x.542))
(define-fun .def_508 () Bool (and .def_149 .def_507))
(define-fun .def_79 () Bool (= .def_44 .x.548))
(define-fun .def_509 () Bool (and .def_79 .def_508))
(define-fun .def_158 () Bool (= .def_46 .x.549))
(define-fun .def_510 () Bool (and .def_158 .def_509))
(define-fun .def_164 () Bool (= .def_52 .x.552))
(define-fun .def_511 () Bool (and .def_164 .def_510))
(define-fun .def_166 () Bool (= .def_54 .x.553))
(define-fun .def_512 () Bool (and .def_166 .def_511))
(define-fun .def_168 () Bool (= .def_56 .x.554))
(define-fun .def_513 () Bool (and .def_168 .def_512))
(define-fun .def_178 () Bool (not .def_68))
(define-fun .def_514 () Bool (and .def_178 .def_513))
(define-fun .def_503 () Bool (= .x.554 0))
(define-fun .def_500 () (Array Int Int) (store .def_10 .def_46 0))
(define-fun .def_501 () (Array Int Int) (store .def_500 .def_54 0))
(define-fun .def_502 () Bool (= .x.531 .def_501))
(define-fun .def_504 () Bool (and .def_502 .def_503))
(define-fun .def_505 () Bool (or .def_66 .def_504))
(define-fun .def_496 () Bool (= .x.548 .x.554))
(define-fun .def_497 () Bool (or D1_18 .def_496))
(define-fun .def_498 () Bool (and .def_68 .def_497))
(define-fun .def_93 () Bool (= .def_66 D1_18))
(define-fun .def_499 () Bool (and .def_93 .def_498))
(define-fun .def_506 () Bool (and .def_499 .def_505))
(define-fun .def_515 () Bool (or .def_506 .def_514))
(define-fun .def_493 () Bool (and .def_74 .def_84))
(define-fun .def_494 () Bool (and .def_86 .def_493))
(define-fun .def_495 () Bool (and .loc.10 .def_494))
(define-fun .def_516 () Bool (and .def_495 .def_515))
(define-fun .def_313 () Bool (= .def_36 0))
(define-fun .def_491 () Bool (or .def_66 .def_313))
(define-fun .def_151 () Bool (and .def_149 .def_150))
(define-fun .def_446 () Bool (and .def_79 .def_151))
(define-fun .def_447 () Bool (and .def_158 .def_446))
(define-fun .def_448 () Bool (and .def_164 .def_447))
(define-fun .def_449 () Bool (and .def_166 .def_448))
(define-fun .def_450 () Bool (and .def_168 .def_449))
(define-fun .def_485 () Bool (and .def_68 .def_450))
(define-fun .def_486 () Bool (and .def_70 .def_485))
(define-fun .def_487 () Bool (and .def_72 .def_486))
(define-fun .def_488 () Bool (and .def_93 .def_487))
(define-fun .def_288 () Bool (not .loc.10))
(define-fun .def_489 () Bool (and .def_288 .def_488))
(define-fun .def_490 () Bool (and .def_95 .def_489))
(define-fun .def_492 () Bool (and .def_490 .def_491))
(define-fun .def_517 () Bool (or .def_492 .def_516))
(define-fun .def_81 () Bool (= .def_58 .x.555))
(define-fun .def_76 () Bool (= .def_36 .x.544))
(define-fun .def_479 () Bool (and .def_76 .def_81))
(define-fun .def_171 () Bool (= .def_60 .x.556))
(define-fun .def_480 () Bool (and .def_171 .def_479))
(define-fun .def_173 () Bool (= .def_62 .x.557))
(define-fun .def_481 () Bool (and .def_173 .def_480))
(define-fun .def_482 () Bool (and .loc.12 .def_481))
(define-fun .def_89 () Bool (not .loc.9))
(define-fun .def_483 () Bool (and .def_89 .def_482))
(define-fun .def_91 () Bool (not .loc.11))
(define-fun .def_484 () Bool (and .def_91 .def_483))
(define-fun .def_518 () Bool (and .def_484 .def_517))
(define-fun .def_475 () Bool (= .x.544 .x.555))
(define-fun .def_471 () Bool (= .x.556 .x.557))
(define-fun .def_472 () Int (ite .def_471 1 0))
(define-fun .def_473 () Bool (= .x.555 .def_472))
(define-fun .def_461 () Int (* 4 .def_48))
(define-fun .def_467 () Int (+ .def_32 .def_461))
(define-fun .def_348 () (Array Int Int) (select .def_14 .def_54))
(define-fun .def_468 () Int (select .def_348 .def_467))
(define-fun .def_469 () Bool (= .x.556 .def_468))
(define-fun .def_463 () Int (+ .def_461 .def_52))
(define-fun .def_205 () (Array Int Int) (select .def_14 .def_46))
(define-fun .def_464 () Int (select .def_205 .def_463))
(define-fun .def_465 () Bool (= .x.557 .def_464))
(define-fun .def_396 () Bool (<= 100000 .def_48))
(define-fun .def_460 () Bool (not .def_396))
(define-fun .def_466 () Bool (and .def_460 .def_465))
(define-fun .def_470 () Bool (and .def_466 .def_469))
(define-fun .def_474 () Bool (and .def_470 .def_473))
(define-fun .def_476 () Bool (and .def_474 .def_475))
(define-fun .def_477 () Bool (or .def_66 .def_476))
(define-fun .def_451 () Bool (and .def_70 .def_450))
(define-fun .def_452 () Bool (and .def_72 .def_451))
(define-fun .def_453 () Bool (and .def_178 .def_452))
(define-fun .def_454 () Bool (and .loc.9 .def_453))
(define-fun .def_455 () Bool (and .loc.10 .def_454))
(define-fun .def_456 () Bool (and .loc.11 .def_455))
(define-fun .def_457 () Bool (and .def_93 .def_456))
(define-fun .def_458 () Bool (and .def_95 .def_457))
(define-fun .def_97 () Bool (not .loc.12))
(define-fun .def_459 () Bool (and .def_97 .def_458))
(define-fun .def_478 () Bool (and .def_459 .def_477))
(define-fun .def_519 () Bool (or .def_478 .def_518))
(define-fun .def_162 () Bool (= .def_50 .x.551))
(define-fun .def_160 () Bool (= .def_48 .x.550))
(define-fun .def_445 () Bool (and .def_160 .def_162))
(define-fun .def_520 () Bool (and .def_445 .def_519))
(define-fun .def_440 () Int (* (- 1) .x.550))
(define-fun .def_441 () Int (+ .def_48 .def_440))
(define-fun .def_442 () Bool (= .def_441 (- 1)))
(define-fun .def_443 () Bool (or D1_18 .def_442))
(define-fun .def_152 () Bool (and .def_76 .def_151))
(define-fun .def_317 () Bool (and .def_79 .def_152))
(define-fun .def_318 () Bool (and .def_158 .def_317))
(define-fun .def_427 () Bool (and .def_164 .def_318))
(define-fun .def_428 () Bool (and .def_166 .def_427))
(define-fun .def_429 () Bool (and .def_168 .def_428))
(define-fun .def_430 () Bool (and .def_81 .def_429))
(define-fun .def_431 () Bool (and .def_178 .def_430))
(define-fun .def_432 () Bool (and .def_84 .def_431))
(define-fun .def_433 () Bool (and .def_86 .def_432))
(define-fun .def_434 () Bool (and .loc.10 .def_433))
(define-fun .def_435 () Bool (and .loc.11 .def_434))
(define-fun .def_436 () Bool (and .def_89 .def_435))
(define-fun .def_437 () Bool (and .def_93 .def_436))
(define-fun .def_438 () Bool (and .def_95 .def_437))
(define-fun .def_439 () Bool (and .def_97 .def_438))
(define-fun .def_444 () Bool (and .def_439 .def_443))
(define-fun .def_521 () Bool (or .def_444 .def_520))
(define-fun .def_424 () Bool (= .x.550 0))
(define-fun .def_425 () Bool (or .def_66 .def_424))
(define-fun .def_408 () Bool (and .def_162 .def_318))
(define-fun .def_409 () Bool (and .def_164 .def_408))
(define-fun .def_410 () Bool (and .def_166 .def_409))
(define-fun .def_411 () Bool (and .def_168 .def_410))
(define-fun .def_412 () Bool (and .def_81 .def_411))
(define-fun .def_413 () Bool (and .def_171 .def_412))
(define-fun .def_414 () Bool (and .def_173 .def_413))
(define-fun .def_415 () Bool (and .def_68 .def_414))
(define-fun .def_416 () Bool (and .def_72 .def_415))
(define-fun .def_417 () Bool (and .def_84 .def_416))
(define-fun .def_418 () Bool (and .loc.10 .def_417))
(define-fun .def_419 () Bool (and .loc.11 .def_418))
(define-fun .def_420 () Bool (and .def_89 .def_419))
(define-fun .def_421 () Bool (and .def_93 .def_420))
(define-fun .def_422 () Bool (and .def_95 .def_421))
(define-fun .def_423 () Bool (and .def_97 .def_422))
(define-fun .def_426 () Bool (and .def_423 .def_425))
(define-fun .def_522 () Bool (or .def_426 .def_521))
(define-fun .def_245 () Bool (and .def_66 .def_150))
(define-fun .def_366 () Bool (and .def_149 .def_245))
(define-fun .def_367 () Bool (and .def_76 .def_366))
(define-fun .def_368 () Bool (and .def_79 .def_367))
(define-fun .def_369 () Bool (and .def_158 .def_368))
(define-fun .def_370 () Bool (and .def_160 .def_369))
(define-fun .def_371 () Bool (and .def_162 .def_370))
(define-fun .def_372 () Bool (and .def_164 .def_371))
(define-fun .def_373 () Bool (and .def_166 .def_372))
(define-fun .def_374 () Bool (and .def_168 .def_373))
(define-fun .def_375 () Bool (and .def_81 .def_374))
(define-fun .def_376 () Bool (and .def_171 .def_375))
(define-fun .def_377 () Bool (and .def_173 .def_376))
(define-fun .def_399 () Bool (and .def_70 .def_377))
(define-fun .def_400 () Bool (and .def_72 .def_399))
(define-fun .def_401 () Bool (and .def_178 .def_400))
(define-fun .def_402 () Bool (and .loc.9 .def_401))
(define-fun .def_403 () Bool (and .loc.12 .def_402))
(define-fun .def_404 () Bool (and .def_91 .def_403))
(define-fun .def_405 () Bool (and .def_93 .def_404))
(define-fun .def_406 () Bool (and .def_288 .def_405))
(define-fun .def_407 () Bool (and .def_95 .def_406))
(define-fun .def_523 () Bool (or .def_407 .def_522))
(define-fun .def_397 () Bool (or .def_66 .def_396))
(define-fun .def_319 () Bool (and .def_160 .def_318))
(define-fun .def_320 () Bool (and .def_162 .def_319))
(define-fun .def_321 () Bool (and .def_164 .def_320))
(define-fun .def_322 () Bool (and .def_166 .def_321))
(define-fun .def_323 () Bool (and .def_168 .def_322))
(define-fun .def_324 () Bool (and .def_81 .def_323))
(define-fun .def_325 () Bool (and .def_171 .def_324))
(define-fun .def_326 () Bool (and .def_173 .def_325))
(define-fun .def_387 () Bool (and .def_70 .def_326))
(define-fun .def_388 () Bool (and .def_72 .def_387))
(define-fun .def_389 () Bool (and .def_178 .def_388))
(define-fun .def_390 () Bool (and .loc.9 .def_389))
(define-fun .def_391 () Bool (and .loc.12 .def_390))
(define-fun .def_392 () Bool (and .def_91 .def_391))
(define-fun .def_393 () Bool (and .def_93 .def_392))
(define-fun .def_394 () Bool (and .def_288 .def_393))
(define-fun .def_395 () Bool (and .def_95 .def_394))
(define-fun .def_398 () Bool (and .def_395 .def_397))
(define-fun .def_524 () Bool (or .def_398 .def_523))
(define-fun .def_378 () Bool (and .def_72 .def_377))
(define-fun .def_379 () Bool (and .def_178 .def_378))
(define-fun .def_380 () Bool (and .def_84 .def_379))
(define-fun .def_381 () Bool (and .loc.9 .def_380))
(define-fun .def_382 () Bool (and .loc.11 .def_381))
(define-fun .def_383 () Bool (and .def_93 .def_382))
(define-fun .def_384 () Bool (and .def_288 .def_383))
(define-fun .def_385 () Bool (and .def_95 .def_384))
(define-fun .def_386 () Bool (and .def_97 .def_385))
(define-fun .def_525 () Bool (or .def_386 .def_524))
(define-fun .def_341 () Bool (<= 100000 .def_40))
(define-fun .def_364 () Bool (or .def_66 .def_341))
(define-fun .def_327 () Bool (and .def_72 .def_326))
(define-fun .def_328 () Bool (and .def_178 .def_327))
(define-fun .def_329 () Bool (and .def_84 .def_328))
(define-fun .def_358 () Bool (and .loc.9 .def_329))
(define-fun .def_359 () Bool (and .loc.11 .def_358))
(define-fun .def_360 () Bool (and .def_93 .def_359))
(define-fun .def_361 () Bool (and .def_288 .def_360))
(define-fun .def_362 () Bool (and .def_95 .def_361))
(define-fun .def_363 () Bool (and .def_97 .def_362))
(define-fun .def_365 () Bool (and .def_363 .def_364))
(define-fun .def_526 () Bool (or .def_365 .def_525))
(define-fun .def_153 () Bool (= .def_38 .x.545))
(define-fun .def_77 () Bool (= .def_14 .x.533))
(define-fun .def_355 () Bool (and .def_77 .def_153))
(define-fun .def_155 () Bool (= .def_40 .x.546))
(define-fun .def_356 () Bool (and .def_155 .def_355))
(define-fun .def_175 () Bool (= .def_64 .x.558))
(define-fun .def_357 () Bool (and .def_175 .def_356))
(define-fun .def_527 () Bool (and .def_357 .def_526))
(define-fun .def_343 () Int (* 4 .def_40))
(define-fun .def_345 () Int (+ .def_343 .def_52))
(define-fun .def_346 () Int (select .def_205 .def_345))
(define-fun .def_347 () Int (+ .def_32 .def_343))
(define-fun .def_349 () (Array Int Int) (store .def_348 .def_347 .def_346))
(define-fun .def_350 () (Array Int (Array Int Int)) (store .def_14 .def_54 .def_349))
(define-fun .def_351 () Bool (= .x.533 .def_350))
(define-fun .def_342 () Bool (not .def_341))
(define-fun .def_352 () Bool (and .def_342 .def_351))
(define-fun .def_353 () Bool (or .def_66 .def_352))
(define-fun .def_336 () Int (* (- 1) .x.546))
(define-fun .def_337 () Int (+ .def_40 .def_336))
(define-fun .def_338 () Bool (= .def_337 (- 1)))
(define-fun .def_339 () Bool (or D1_18 .def_338))
(define-fun .def_330 () Bool (and .loc.11 .def_329))
(define-fun .def_331 () Bool (and .def_89 .def_330))
(define-fun .def_332 () Bool (and .def_93 .def_331))
(define-fun .def_333 () Bool (and .def_288 .def_332))
(define-fun .def_334 () Bool (and .def_95 .def_333))
(define-fun .def_335 () Bool (and .def_97 .def_334))
(define-fun .def_340 () Bool (and .def_335 .def_339))
(define-fun .def_354 () Bool (and .def_340 .def_353))
(define-fun .def_528 () Bool (or .def_354 .def_527))
(define-fun .def_314 () Bool (not .def_313))
(define-fun .def_315 () Bool (or .def_66 .def_314))
(define-fun .def_218 () Bool (and .def_77 .def_150))
(define-fun .def_219 () Bool (and .def_149 .def_218))
(define-fun .def_220 () Bool (and .def_76 .def_219))
(define-fun .def_221 () Bool (and .def_153 .def_220))
(define-fun .def_222 () Bool (and .def_155 .def_221))
(define-fun .def_223 () Bool (and .def_79 .def_222))
(define-fun .def_224 () Bool (and .def_158 .def_223))
(define-fun .def_225 () Bool (and .def_160 .def_224))
(define-fun .def_226 () Bool (and .def_162 .def_225))
(define-fun .def_227 () Bool (and .def_164 .def_226))
(define-fun .def_228 () Bool (and .def_166 .def_227))
(define-fun .def_229 () Bool (and .def_168 .def_228))
(define-fun .def_230 () Bool (and .def_81 .def_229))
(define-fun .def_231 () Bool (and .def_171 .def_230))
(define-fun .def_232 () Bool (and .def_173 .def_231))
(define-fun .def_233 () Bool (and .def_175 .def_232))
(define-fun .def_304 () Bool (and .def_68 .def_233))
(define-fun .def_305 () Bool (and .def_70 .def_304))
(define-fun .def_306 () Bool (and .def_72 .def_305))
(define-fun .def_307 () Bool (and .def_89 .def_306))
(define-fun .def_308 () Bool (and .def_91 .def_307))
(define-fun .def_309 () Bool (and .def_93 .def_308))
(define-fun .def_310 () Bool (and .def_288 .def_309))
(define-fun .def_311 () Bool (and .def_95 .def_310))
(define-fun .def_312 () Bool (and .def_97 .def_311))
(define-fun .def_316 () Bool (and .def_312 .def_315))
(define-fun .def_529 () Bool (or .def_316 .def_528))
(define-fun .def_246 () Bool (and .def_77 .def_245))
(define-fun .def_247 () Bool (and .def_149 .def_246))
(define-fun .def_248 () Bool (and .def_76 .def_247))
(define-fun .def_249 () Bool (and .def_153 .def_248))
(define-fun .def_250 () Bool (and .def_155 .def_249))
(define-fun .def_251 () Bool (and .def_79 .def_250))
(define-fun .def_252 () Bool (and .def_158 .def_251))
(define-fun .def_253 () Bool (and .def_160 .def_252))
(define-fun .def_254 () Bool (and .def_162 .def_253))
(define-fun .def_255 () Bool (and .def_164 .def_254))
(define-fun .def_256 () Bool (and .def_166 .def_255))
(define-fun .def_257 () Bool (and .def_168 .def_256))
(define-fun .def_258 () Bool (and .def_81 .def_257))
(define-fun .def_259 () Bool (and .def_171 .def_258))
(define-fun .def_260 () Bool (and .def_173 .def_259))
(define-fun .def_261 () Bool (and .def_175 .def_260))
(define-fun .def_295 () Bool (and .def_74 .def_261))
(define-fun .def_296 () Bool (and .def_178 .def_295))
(define-fun .def_297 () Bool (and .def_84 .def_296))
(define-fun .def_298 () Bool (and .def_86 .def_297))
(define-fun .def_299 () Bool (and .def_89 .def_298))
(define-fun .def_300 () Bool (and .def_91 .def_299))
(define-fun .def_301 () Bool (and .def_93 .def_300))
(define-fun .def_302 () Bool (and .def_288 .def_301))
(define-fun .def_303 () Bool (and .def_97 .def_302))
(define-fun .def_530 () Bool (or .def_303 .def_529))
(define-fun .def_292 () Bool (= .x.546 0))
(define-fun .def_293 () Bool (or .def_66 .def_292))
(define-fun .def_271 () Bool (and .def_79 .def_221))
(define-fun .def_272 () Bool (and .def_158 .def_271))
(define-fun .def_273 () Bool (and .def_160 .def_272))
(define-fun .def_274 () Bool (and .def_162 .def_273))
(define-fun .def_275 () Bool (and .def_164 .def_274))
(define-fun .def_276 () Bool (and .def_166 .def_275))
(define-fun .def_277 () Bool (and .def_168 .def_276))
(define-fun .def_278 () Bool (and .def_81 .def_277))
(define-fun .def_279 () Bool (and .def_171 .def_278))
(define-fun .def_280 () Bool (and .def_173 .def_279))
(define-fun .def_281 () Bool (and .def_175 .def_280))
(define-fun .def_282 () Bool (and .def_68 .def_281))
(define-fun .def_283 () Bool (and .def_70 .def_282))
(define-fun .def_284 () Bool (and .def_86 .def_283))
(define-fun .def_285 () Bool (and .loc.11 .def_284))
(define-fun .def_286 () Bool (and .def_89 .def_285))
(define-fun .def_287 () Bool (and .def_93 .def_286))
(define-fun .def_289 () Bool (and .def_287 .def_288))
(define-fun .def_290 () Bool (and .def_95 .def_289))
(define-fun .def_291 () Bool (and .def_97 .def_290))
(define-fun .def_294 () Bool (and .def_291 .def_293))
(define-fun .def_531 () Bool (or .def_294 .def_530))
(define-fun .def_262 () Bool (and .def_70 .def_261))
(define-fun .def_263 () Bool (and .def_178 .def_262))
(define-fun .def_264 () Bool (and .def_86 .def_263))
(define-fun .def_265 () Bool (and .loc.9 .def_264))
(define-fun .def_266 () Bool (and .loc.10 .def_265))
(define-fun .def_267 () Bool (and .def_91 .def_266))
(define-fun .def_268 () Bool (and .def_93 .def_267))
(define-fun .def_269 () Bool (and .def_95 .def_268))
(define-fun .def_270 () Bool (and .def_97 .def_269))
(define-fun .def_532 () Bool (or .def_270 .def_531))
(define-fun .def_194 () Bool (<= 100000 .def_34))
(define-fun .def_243 () Bool (or .def_66 .def_194))
(define-fun .def_234 () Bool (and .def_70 .def_233))
(define-fun .def_235 () Bool (and .def_178 .def_234))
(define-fun .def_236 () Bool (and .def_86 .def_235))
(define-fun .def_237 () Bool (and .loc.9 .def_236))
(define-fun .def_238 () Bool (and .loc.10 .def_237))
(define-fun .def_239 () Bool (and .def_91 .def_238))
(define-fun .def_240 () Bool (and .def_93 .def_239))
(define-fun .def_241 () Bool (and .def_95 .def_240))
(define-fun .def_242 () Bool (and .def_97 .def_241))
(define-fun .def_244 () Bool (and .def_242 .def_243))
(define-fun .def_533 () Bool (or .def_244 .def_532))
(define-fun .def_216 () Bool (= .def_42 .x.547))
(define-fun .def_214 () Bool (= .def_30 .x.541))
(define-fun .def_213 () Bool (= .def_34 .x.543))
(define-fun .def_215 () Bool (and .def_213 .def_214))
(define-fun .def_217 () Bool (and .def_215 .def_216))
(define-fun .def_534 () Bool (and .def_217 .def_533))
(define-fun .def_203 () Int (* 4 .def_34))
(define-fun .def_206 () Int (+ .def_203 .def_52))
(define-fun .def_207 () (Array Int Int) (store .def_205 .def_206 .def_30))
(define-fun .def_208 () (Array Int (Array Int Int)) (store .def_14 .def_46 .def_207))
(define-fun .def_209 () Bool (= .x.533 .def_208))
(define-fun .def_200 () Bool (<= (- 2147483648) .def_30))
(define-fun .def_197 () Bool (<= .def_30 2147483647))
(define-fun .def_195 () Bool (not .def_194))
(define-fun .def_198 () Bool (and .def_195 .def_197))
(define-fun .def_201 () Bool (and .def_198 .def_200))
(define-fun .def_210 () Bool (and .def_201 .def_209))
(define-fun .def_211 () Bool (or .def_66 .def_210))
(define-fun .def_188 () Int (* (- 1) .x.543))
(define-fun .def_189 () Int (+ .def_34 .def_188))
(define-fun .def_190 () Bool (= .def_189 (- 1)))
(define-fun .def_191 () Bool (or D1_18 .def_190))
(define-fun .def_154 () Bool (and .def_152 .def_153))
(define-fun .def_156 () Bool (and .def_154 .def_155))
(define-fun .def_157 () Bool (and .def_79 .def_156))
(define-fun .def_159 () Bool (and .def_157 .def_158))
(define-fun .def_161 () Bool (and .def_159 .def_160))
(define-fun .def_163 () Bool (and .def_161 .def_162))
(define-fun .def_165 () Bool (and .def_163 .def_164))
(define-fun .def_167 () Bool (and .def_165 .def_166))
(define-fun .def_169 () Bool (and .def_167 .def_168))
(define-fun .def_170 () Bool (and .def_81 .def_169))
(define-fun .def_172 () Bool (and .def_170 .def_171))
(define-fun .def_174 () Bool (and .def_172 .def_173))
(define-fun .def_176 () Bool (and .def_174 .def_175))
(define-fun .def_177 () Bool (and .def_70 .def_176))
(define-fun .def_179 () Bool (and .def_177 .def_178))
(define-fun .def_180 () Bool (and .def_86 .def_179))
(define-fun .def_181 () Bool (and .loc.10 .def_180))
(define-fun .def_182 () Bool (and .def_89 .def_181))
(define-fun .def_183 () Bool (and .def_91 .def_182))
(define-fun .def_184 () Bool (and .def_93 .def_183))
(define-fun .def_185 () Bool (and .def_95 .def_184))
(define-fun .def_186 () Bool (and .def_97 .def_185))
(define-fun .def_192 () Bool (and .def_186 .def_191))
(define-fun .def_212 () Bool (and .def_192 .def_211))
(define-fun .def_535 () Bool (or .def_212 .def_534))
(define-fun .def_147 () Bool (= .def_26 .x.539))
(define-fun .def_145 () Bool (= .def_18 .x.535))
(define-fun .def_144 () Bool (= .def_22 .x.537))
(define-fun .def_146 () Bool (and .def_144 .def_145))
(define-fun .def_148 () Bool (and .def_146 .def_147))
(define-fun .def_536 () Bool (and .def_148 .def_535))
(define-fun .def_139 () Bool (= .x.539 0))
(define-fun .def_138 () Bool (= .x.535 0))
(define-fun .def_140 () Bool (and .def_138 .def_139))
(define-fun .def_136 () (Array Int Int) (store .def_10 0 0))
(define-fun .def_137 () Bool (= .def_100 .def_136))
(define-fun .def_141 () Bool (and .def_137 .def_140))
(define-fun .def_142 () Bool (or .def_66 .def_141))
(define-fun .def_122 () Bool (<= .x.530 .x.549))
(define-fun .def_123 () Bool (not .def_122))
(define-fun .def_120 () Bool (<= .x.530 .x.553))
(define-fun .def_121 () Bool (not .def_120))
(define-fun .def_124 () Bool (and .def_121 .def_123))
(define-fun .def_119 () Bool (= .x.542 0))
(define-fun .def_125 () Bool (and .def_119 .def_124))
(define-fun .def_118 () Bool (= .x.543 0))
(define-fun .def_126 () Bool (and .def_118 .def_125))
(define-fun .def_117 () Bool (= .x.552 0))
(define-fun .def_127 () Bool (and .def_117 .def_126))
(define-fun .def_115 () Bool (= .x.553 0))
(define-fun .def_116 () Bool (not .def_115))
(define-fun .def_128 () Bool (and .def_116 .def_127))
(define-fun .def_113 () Bool (= .x.549 0))
(define-fun .def_114 () Bool (not .def_113))
(define-fun .def_129 () Bool (and .def_114 .def_128))
(define-fun .def_111 () Int (select .def_100 .x.549))
(define-fun .def_112 () Bool (= .def_111 0))
(define-fun .def_130 () Bool (and .def_112 .def_129))
(define-fun .def_101 () (Array Int Int) (store .def_100 .x.549 1))
(define-fun .def_109 () Int (select .def_101 .x.553))
(define-fun .def_110 () Bool (= .def_109 0))
(define-fun .def_131 () Bool (and .def_110 .def_130))
(define-fun .def_105 () (Array Int Int) (store .def_22 .x.549 400000))
(define-fun .def_106 () (Array Int Int) (store .def_105 .x.553 400000))
(define-fun .def_107 () Bool (= .x.537 .def_106))
(define-fun .def_132 () Bool (and .def_107 .def_131))
(define-fun .def_102 () (Array Int Int) (store .def_101 .x.553 1))
(define-fun .def_103 () Bool (= .x.531 .def_102))
(define-fun .def_133 () Bool (and .def_103 .def_132))
(define-fun .def_134 () Bool (or D1_18 .def_133))
(define-fun .def_78 () Bool (and .def_76 .def_77))
(define-fun .def_80 () Bool (and .def_78 .def_79))
(define-fun .def_82 () Bool (and .def_80 .def_81))
(define-fun .def_83 () Bool (and .def_68 .def_82))
(define-fun .def_85 () Bool (and .def_83 .def_84))
(define-fun .def_87 () Bool (and .def_85 .def_86))
(define-fun .def_88 () Bool (and .loc.10 .def_87))
(define-fun .def_90 () Bool (and .def_88 .def_89))
(define-fun .def_92 () Bool (and .def_90 .def_91))
(define-fun .def_94 () Bool (and .def_92 .def_93))
(define-fun .def_96 () Bool (and .def_94 .def_95))
(define-fun .def_98 () Bool (and .def_96 .def_97))
(define-fun .def_135 () Bool (and .def_98 .def_134))
(define-fun .def_143 () Bool (and .def_135 .def_142))
(define-fun .def_537 () Bool (or .def_143 .def_536))
(define-fun .def_549 () Bool (! (and .def_537 .def_548) :trans true))
(define-fun .def_565 () Bool (and .def_70 .def_178))
(define-fun .def_566 () Bool (and .def_86 .def_565))
(define-fun .def_567 () Bool (and .def_74 .def_566))
(define-fun .def_568 () Bool (and .def_66 .def_567))
(define-fun .def_569 () Bool (! (not .def_568) :invar-property 0))
(assert true)
